(declare-fun temp9311_1 () (_ BitVec 64))
(declare-fun var140390 () (_ BitVec 64))
(declare-fun temp9311_3 () (_ BitVec 64))
(declare-fun temp9311_2 () (_ BitVec 64))
(declare-fun temp9311_4 () (_ BitVec 64))
(declare-fun var2565548 () (_ BitVec 64))
(declare-fun temp9311_5 () (_ BitVec 64))
(declare-fun var2634158 () (_ BitVec 64))
(declare-fun temp9311_7 () (_ BitVec 64))
(declare-fun temp9311_6 () (_ BitVec 64))
(declare-fun temp9311_9 () (_ BitVec 64))
(declare-fun temp9311_8 () (_ BitVec 64))
(declare-fun temp9311_11 () (_ BitVec 64))
(declare-fun temp9311_10 () (_ BitVec 64))
(declare-fun temp9311_12 () (_ BitVec 64))
(declare-fun var2634159 () (_ BitVec 64))
(declare-fun temp9311_13 () (_ BitVec 64))
(declare-fun var4727387 () (_ BitVec 64))
(declare-fun temp9311_14 () (_ BitVec 64))
(declare-fun var77802 () (_ BitVec 64))
(declare-fun temp9311_15 () (_ BitVec 64))
(declare-fun var77803 () (_ BitVec 64))
(declare-fun temp9311_16 () (_ BitVec 64))
(declare-fun temp9311_18 () (_ BitVec 64))
(declare-fun temp9311_17 () (_ BitVec 64))
(declare-fun temp9311_19 () (_ BitVec 64))
(declare-fun var5316253 () (_ BitVec 64))
(assert (= temp9311_1 #x0000000000000000))
(assert (= var140390 temp9311_1))
(assert (= temp9311_3 #xffffffffffffffff))
(assert (= temp9311_2 temp9311_3))
(assert (= temp9311_4 #x0000000000000000))
(assert (= var2565548 temp9311_4))
(assert (= temp9311_5 #x0000000000000000))
(assert (= var2634158 temp9311_5))
(assert (= temp9311_7 #x0000000000000000))
(assert (= temp9311_6 temp9311_7))
(assert (= temp9311_9 #x0000000000000001))
(assert (= temp9311_8 temp9311_9))
(assert (= temp9311_11 #x0000000000000001))
(assert (= temp9311_10 temp9311_11))
(assert (= temp9311_12 #x0000000000000001))
(assert (= var2634159 (bvadd var2634158 temp9311_12)))
(assert (= temp9311_13 #x0000000000000001))
(assert (= var4727387 temp9311_13))
(assert (= temp9311_14 #x0000000000000014))
(assert (= var77802 temp9311_14))
(assert (= temp9311_15 #x0000000000000014))
(assert (= var77803
   (ite (= var77802 temp9311_15) #x0000000000000001 #x0000000000000000)))
(assert (= temp9311_16 #x0000000000000001))
(assert (= var77803 temp9311_16))
(assert (= temp9311_18 #x0000000000000001))
(assert (= temp9311_17 temp9311_18))
(assert (= temp9311_19 #x0000000000000002))
(assert (= var5316253 temp9311_19))
(model-add temp9311_1 () (_ BitVec 64) #x0000000000000000)
(model-add var140390 () (_ BitVec 64) #x0000000000000000)
(model-add temp9311_3 () (_ BitVec 64) #xffffffffffffffff)
(model-add temp9311_2 () (_ BitVec 64) #xffffffffffffffff)
(model-add temp9311_4 () (_ BitVec 64) #x0000000000000000)
(model-add var2565548 () (_ BitVec 64) #x0000000000000000)
(model-add temp9311_5 () (_ BitVec 64) #x0000000000000000)
(model-add var2634158 () (_ BitVec 64) #x0000000000000000)
(model-add temp9311_7 () (_ BitVec 64) #x0000000000000000)
(model-add temp9311_6 () (_ BitVec 64) #x0000000000000000)
(model-add temp9311_9 () (_ BitVec 64) #x0000000000000001)
(model-add temp9311_8 () (_ BitVec 64) #x0000000000000001)
(model-add temp9311_11 () (_ BitVec 64) #x0000000000000001)
(model-add temp9311_10 () (_ BitVec 64) #x0000000000000001)
(model-add temp9311_12 () (_ BitVec 64) #x0000000000000001)
(model-add var2634159 () (_ BitVec 64) #x0000000000000001)
(model-add temp9311_13 () (_ BitVec 64) #x0000000000000001)
(model-add var4727387 () (_ BitVec 64) #x0000000000000001)
(model-add temp9311_14 () (_ BitVec 64) #x0000000000000014)
(model-add var77802 () (_ BitVec 64) #x0000000000000014)
(model-add temp9311_15 () (_ BitVec 64) #x0000000000000014)
(model-add var77803 () (_ BitVec 64) #x0000000000000001)
(model-add temp9311_16 () (_ BitVec 64) #x0000000000000001)

